language ESSENCE 1.3

letting buckets be 5

letting capacity     be function(1 --> 3, 2 --> 7, 3 --> 8, 4 --> 17, 5 --> 5)
letting initialState be function(1 --> 0, 2 --> 0, 3 --> 0, 4 --> 17, 5 --> 0)
letting finalState   be function(1 --> 1, 2 --> 6, 3 --> 6, 4 --> 4, 5 --> 0)

letting HORIZON be 30
